NAME: random_points
TYPE: TSP
DIMENSION: 30
EDGE_WEIGHT_TYPE: EUC_2D
NODE_COORD_SECTION
1 74 979
2 23 448
3 207 211
4 702 392
5 240 795
6 137 546
7 561 255
8 836 316
9 310 555
10 664 741
11 477 753
12 603 667
13 579 55
14 306 230
15 523 877
16 168 234
17 290 685
18 252 702
19 175 576
20 470 241
21 889 951
22 293 406
23 932 256
24 36 293
25 609 405
26 996 883
27 635 146
28 244 107
29 406 67
30 953 376
EOF
